% File represents an instance of a Composite Structure problem to be solved by a CP framework
% Created on 2025-03-26 10:41:23.817
T = 50;
n = 16;
m = 24;
edges = [(1, 2),
(5, 6),
(9, 10),
(13, 14),
(2, 3),
(6, 7),
(10, 11),
(15, 14),
(4, 3),
(7, 8),
(11, 12),
(15, 16),
(5, 1),
(5, 9),
(9, 13),
(6, 2),
(6, 10),
(10, 14),
(7, 3),
(7, 11),
(15, 11),
(4, 8),
(8, 12),
(16, 12)];
counts = [|4, 20, 4, 18,
|4, 14, 4, 18,
|4, 14, 4, 14,
|4, 16, 4, 14,
|4, 24, 4, 18,
|4, 18, 4, 18,
|4, 16, 4, 16,
|4, 16, 4, 10,
|4, 20, 4, 16,
|4, 14, 4, 16,
|4, 14, 4, 12,
|4, 14, 4, 10,
|4, 16, 4, 14,
|4, 10, 4, 14,
|4, 14, 4, 14,
|4, 14, 4, 12|];
